
List of user-set options:

                                    Name   Value                used
                           linear_solver = mumps                 yes
                  ma57_automatic_scaling = yes                    no
                                max_iter = 2000                  yes
                             mu_strategy = adaptive              yes
                             output_file = GPOPS_MarkIPOPTinfo.txt  yes
                             print_level = 5                     yes
                      print_user_options = yes                   yes
                                     tol = 1e-007                yes
This is Ipopt version 3.11.0, running with linear solver mumps.

Number of nonzeros in equality constraint Jacobian...:     2245
Number of nonzeros in inequality constraint Jacobian.:        0
Number of nonzeros in Lagrangian Hessian.............:      979

Total number of variables............................:      433
                     variables with only lower bounds:        0
                variables with lower and upper bounds:      433
                     variables with only upper bounds:        0
Total number of equality constraints.................:      321
Total number of inequality constraints...............:        1
        inequality constraints with only lower bounds:        0
   inequality constraints with lower and upper bounds:        1
        inequality constraints with only upper bounds:        0

iter    objective    inf_pr   inf_du lg(mu)  ||d||  lg(rg) alpha_du alpha_pr  ls
   0 5.0000000e+000 2.29e+002 9.98e+001   0.0 0.00e+000    -  0.00e+000 0.00e+000   0
   1 4.9631979e+000 2.29e+002 9.90e+001   0.7 7.35e+001   0.0 7.16e-003 8.00e-004h  1
   2 4.9630989e-002 2.21e+002 2.29e+002   0.5 2.65e+000    -  9.90e-001 3.62e-002f  1
   3 1.1094025e+001 1.81e+002 5.49e+002   1.8 2.07e+000    -  2.62e-001 1.93e-001f  1
   4 1.1111077e+001 1.81e+002 2.43e+004   1.5 9.15e-001   4.0 1.00e+000 4.36e-003h  1
   5 2.1491177e+001 1.09e+002 3.06e+004   2.3 1.16e+000   3.6 1.00e+000 4.49e-001f  1
   6 2.1602653e+001 1.08e+002 2.27e+005   3.2 9.22e-001   4.9 5.46e-001 1.23e-002h  1
   7 3.4879007e+001 9.12e+001 5.50e+005   4.0 2.93e+000   4.4 6.10e-001 2.09e-001f  1
   8 4.8915180e+001 6.90e+001 3.73e+005   4.7 2.98e+000   4.8 3.68e-001 3.30e-001f  1
   9 4.9508418e+001 5.53e+001 2.55e+006   4.5 1.09e+000   5.3 1.61e-001 2.16e-001h  1
iter    objective    inf_pr   inf_du lg(mu)  ||d||  lg(rg) alpha_du alpha_pr  ls
  10 5.1536898e+001 2.84e+001 6.76e+006   4.4 7.42e-001   5.7 7.53e-001 5.89e-001h  1
  11 5.3517708e+001 1.53e+001 1.36e+007   4.4 3.48e-001   7.0 1.00e+000 5.53e-001h  1
  12 5.7954988e+001 4.38e+000 1.43e+007   4.1 2.17e-001   7.4 1.00e+000 1.00e+000h  1
  13 6.4126211e+001 1.25e+000 4.62e+006   3.1 1.17e-001   7.9 1.00e+000 9.94e-001h  1
  14 7.7249254e+001 1.81e-001 3.26e+006   2.2 1.31e-001   7.4 1.00e+000 1.00e+000h  1
  15 8.2098063e+001 4.69e-003 4.01e+005   1.0 4.85e-002   6.9 1.00e+000 1.00e+000h  1
  16 8.2198536e+001 4.96e-006 2.77e+003   0.7 1.00e-003   6.4 1.00e+000 1.00e+000f  1
  17 8.2189578e+001 2.15e-008 8.24e+001  -1.2 8.96e-005   6.0 1.00e+000 1.00e+000f  1
  18 8.2161393e+001 3.51e-008 8.64e+001  -3.1 2.82e-004   5.5 1.00e+000 1.00e+000f  1
  19 8.2076794e+001 3.21e-007 8.64e+001  -4.8 8.46e-004   5.0 1.00e+000 1.00e+000f  1
iter    objective    inf_pr   inf_du lg(mu)  ||d||  lg(rg) alpha_du alpha_pr  ls
  20 8.1823103e+001 2.89e-006 8.64e+001  -6.5 2.54e-003   4.5 1.00e+000 1.00e+000f  1
  21 8.1063008e+001 2.59e-005 8.63e+001  -8.0 7.60e-003   4.1 1.00e+000 1.00e+000f  1
  22 7.8791575e+001 2.30e-004 8.60e+001  -9.3 2.27e-002   3.6 1.00e+000 1.00e+000f  1
  23 7.5436127e+001 6.10e-004 8.54e+001  -7.2 6.73e-002   3.1 1.00e+000 4.98e-001f  1
  24 7.5380863e+001 6.08e-004 8.54e+001  -6.3 1.97e-001   2.6 1.00e+000 2.81e-003f  1
  25 3.7928088e+001 5.21e-002 8.13e+001  -5.9 5.65e-001   2.1 1.00e+000 6.63e-001f  1
  26 4.0857434e+000 1.10e-001 7.29e+001  -4.0 1.14e+000   1.7 1.00e+000 2.97e-001f  1
  27 4.0856444e-002 1.07e-001 6.95e+001  -3.4 7.19e-001   1.2 1.00e+000 5.62e-002f  1
  28 4.0757444e-004 1.07e-001 6.00e+001  -4.1 2.76e-001   1.6 1.00e+000 1.47e-003f  1
  29 3.7205901e-004 2.69e-002 2.25e+000  -3.5 4.38e-002   1.1 1.00e+000 1.00e+000h  1
iter    objective    inf_pr   inf_du lg(mu)  ||d||  lg(rg) alpha_du alpha_pr  ls
  30 2.7305901e-006 6.75e-003 6.22e-001  -4.5 2.24e-002   0.7 1.00e+000 9.99e-001h  1
  31 -3.5941223e-007 1.69e-003 1.66e-001  -6.1 1.15e-002   0.2 1.00e+000 1.00e+000h  1
  32 -9.9206726e-007 4.26e-004 4.36e-002  -7.6 5.78e-003  -0.3 1.00e+000 1.00e+000h  1
  33 -9.9784098e-007 1.08e-004 1.11e-002  -8.7 2.86e-003  -0.8 1.00e+000 1.00e+000h  1
  34 -9.9949976e-007 2.73e-005 2.75e-003  -9.3 1.39e-003  -1.2 1.00e+000 1.00e+000h  1
  35 -9.9999160e-007 6.94e-006 6.55e-004 -11.0 6.57e-004  -1.7 1.00e+000 1.00e+000h  1
  36 -9.9998997e-007 1.76e-006 1.94e-004 -11.0 3.03e-004  -2.2 1.00e+000 1.00e+000h  1
  37 -9.9998998e-007 4.45e-007 5.59e-005 -11.0 1.49e-004  -2.7 1.00e+000 1.00e+000h  1
  38 -9.9998998e-007 1.14e-007 1.28e-005 -11.0 7.45e-005  -3.2 1.00e+000 1.00e+000h  1
  39 -9.9998998e-007 3.13e-008 2.25e-006 -11.0 3.85e-005  -3.6 1.00e+000 1.00e+000h  1
iter    objective    inf_pr   inf_du lg(mu)  ||d||  lg(rg) alpha_du alpha_pr  ls
  40 -9.9998996e-007 1.17e-008 2.08e-005 -11.0 4.55e-005  -4.1 1.00e+000 1.00e+000h  1
  41 -9.9998765e-007 1.11e-008 8.15e+000 -10.3 1.69e-003  -4.6 1.00e+000 5.30e-002h  2
  42 -9.9998758e-007 1.11e-008 6.64e+001 -10.3 5.99e-002  -5.1 6.07e-001 1.23e-003h  7
  43 -9.9998746e-007 1.11e-008 8.94e+001 -10.3 2.50e-001  -5.5 2.51e-001 7.14e-004h  8
  44 -9.9998719e-007 1.11e-008 9.14e+001 -10.3 2.92e-001  -6.0 8.85e-001 5.35e-004h  8
  45 -9.9998674e-007 1.11e-008 8.70e+001 -10.3 3.06e-001  -6.5 3.29e-001 7.42e-004h  7
  46 -9.9998647e-007 1.11e-008 9.87e+001 -10.3 3.02e-001  -6.1 1.39e-001 5.30e-004h  8
  47 -9.9908936e-007 1.11e-008 9.14e+001 -10.3 5.80e-001  -6.5 2.05e-002 3.37e-004h 11
  48 -9.9908501e-007 1.11e-008 9.87e+001 -10.3 3.46e-001  -6.1 6.79e-002 3.30e-004h  8
  49 -9.9838977e-007 1.11e-008 9.54e+001 -10.3 2.33e-001  -6.6 5.92e-001 1.32e-003h  6
iter    objective    inf_pr   inf_du lg(mu)  ||d||  lg(rg) alpha_du alpha_pr  ls
  50 -9.9830350e-007 1.11e-008 9.83e+001 -10.3 3.90e-001  -6.2 1.54e-002 8.26e-004h  6
  51 -9.9549122e-007 1.10e-008 9.57e+001 -10.3 1.85e-001  -6.6 8.07e-001 3.86e-003h  5
In iteration 51, 1 Slack too small, adjusting variable bound
  52 -9.5269251e-007 2.50e-008 6.57e+001 -10.3 2.11e-001  -6.2 1.13e-002 1.08e-001w  1
In iteration 52, 1 Slack too small, adjusting variable bound
  53 -5.9794668e-007 1.61e-008 4.13e+001 -10.3 1.98e-002  -5.8 6.41e-001 3.70e-001w  1
  54 7.2152340e-009 1.23e-008 8.63e-002 -10.3 2.51e-002  -6.3 4.31e-001 1.00e+000w  1
  55 -9.9515686e-007 1.10e-008 9.77e+001 -10.3 2.85e-002  -6.7 1.13e-002 8.44e-004h  7
  56 -9.9037271e-007 1.10e-008 9.62e+001 -10.3 7.94e-002  -6.3 1.00e+000 5.49e-003h  7
  57 -9.8927793e-007 1.09e-008 9.69e+001 -10.3 2.33e-001  -6.8 1.39e-002 1.59e-003h  8
  58 -9.8150856e-007 1.08e-008 9.56e+001 -10.3 7.50e-002  -6.4 1.00e+000 8.80e-003h  7
  59 -9.8039633e-007 1.08e-008 9.59e+001 -10.3 5.66e-001  -6.9 2.26e-002 1.37e-003h  6
iter    objective    inf_pr   inf_du lg(mu)  ||d||  lg(rg) alpha_du alpha_pr  ls
  60 -9.7494282e-007 1.08e-008 9.51e+001 -10.3 6.67e-002  -6.4 1.00e+000 6.19e-003h  8
  61 -9.6410820e-007 1.06e-008 9.40e+001 -10.3 4.38e-002  -6.0 2.85e-002 1.24e-002h  7
  62 -9.5785371e-007 1.06e-008 9.32e+001 -10.3 6.33e-002  -6.5 1.00e+000 7.17e-003h  8
  63 -9.4637879e-007 1.04e-008 9.21e+001 -10.3 4.13e-002  -6.1 4.80e-002 1.32e-002h  7
  64 -9.3979542e-007 1.03e-008 9.13e+001 -10.3 6.10e-002  -6.5 1.00e+000 7.66e-003h  8
In iteration 64, 1 Slack too small, adjusting variable bound
  65 -2.1315656e-007 4.54e-008 1.32e+001 -10.3 4.08e-002  -6.1 6.94e-002 8.44e-001w  1
In iteration 65, 1 Slack too small, adjusting variable bound
  66 -1.7432711e-007 3.81e-008 1.09e+001 -10.3 4.75e-002  -6.6 3.21e-001 1.76e-001w  1
In iteration 66, 1 Slack too small, adjusting variable bound
  67 -9.0525354e-008 2.07e-008 5.92e+000 -10.3 3.90e-002  -6.2 4.75e-001 4.56e-001w  1
  68 -9.2844169e-007 1.02e-008 9.02e+001 -10.3 4.90e-002  -6.6 6.94e-002 1.32e-002h  6
  69 -9.1622316e-007 1.01e-008 8.88e+001 -10.3 4.13e-002  -6.2 1.00e+000 1.43e-002h  7
iter    objective    inf_pr   inf_du lg(mu)  ||d||  lg(rg) alpha_du alpha_pr  ls
  70 -9.1098753e-007 9.99e-009 8.83e+001 -10.3 7.62e-002  -6.7 9.99e-002 6.34e-003h  8
  71 -9.0450428e-007 9.91e-009 8.76e+001 -10.3 4.24e-002  -6.3 1.00e+000 7.74e-003h  8
  72 -9.0220915e-007 9.88e-009 8.74e+001 -10.3 1.58e-001  -6.7 1.17e-001 2.83e-003h  9
  73 -8.9575062e-007 9.80e-009 8.66e+001 -10.3 4.53e-002  -6.3 1.00e+000 7.81e-003h  8
  74 -8.8382655e-007 6.65e-008 8.52e+001 -10.3 3.79e+000  -6.8 1.64e-002 1.64e-002s 16
  75 -7.6844797e-007 5.69e-008 7.32e+001 -10.3 4.76e-002  -6.4 1.41e-001 1.41e-001s 16
  76 -5.2846505e-007 2.15e-007 4.91e+001 -10.3 5.71e-001  -6.8 3.29e-001 3.29e-001s 16
  77 -1.8109193e-007 7.20e-008 1.69e+001 -10.3 2.31e-002  -6.4 6.56e-001 6.56e-001s 16
  78 -6.2249850e-008 2.63e-008 6.22e+000 -10.3 5.03e-002  -6.9 6.32e-001 6.32e-001s 16
  79 8.2514828e-009 2.58e-009 2.09e-004 -10.3 2.03e-002  -6.5 1.00e+000 1.00e+000s 16
iter    objective    inf_pr   inf_du lg(mu)  ||d||  lg(rg) alpha_du alpha_pr  ls
  80 7.5045747e-009 6.24e-009 6.16e-005 -10.3 1.20e-001  -6.9 1.58e-001 1.58e-001s 16
  81 6.7250927e-009 3.51e-009 1.18e-004 -10.3 1.54e-002  -6.5 1.00e+000 1.00e+000s 16
  82r6.7250927e-009 3.51e-009 9.99e+002  -8.5 0.00e+000  -7.0 0.00e+000 0.00e+000R  1
  83r6.8045680e-009 8.70e-010 9.68e+002  -8.2 9.08e-003    -  3.11e-002 9.92e-004f  1
  84r7.9902529e-009 7.00e-011 8.91e+002  -8.8 1.88e-003    -  7.99e-002 3.25e-002f  1
  85 7.7793216e-009 1.20e-010 1.00e+002 -10.3 1.00e+001    -  4.16e-002 2.11e-004h  2
  86 7.1258222e-009 7.38e-010 9.93e+001 -10.3 1.96e+000    -  3.55e-001 6.94e-003h  3
  87 6.7043204e-009 8.52e-010 9.78e+001 -10.3 1.22e+000    -  3.49e-001 1.46e-002h  6
  88 6.6216699e-009 8.50e-010 9.74e+001 -10.3 1.01e+000    -  8.03e-001 4.52e-003h  8
  89 6.5821459e-009 8.48e-010 9.71e+001 -10.3 7.60e-001    -  6.36e-001 2.98e-003h  9
iter    objective    inf_pr   inf_du lg(mu)  ||d||  lg(rg) alpha_du alpha_pr  ls
  90 6.5336347e-009 8.45e-010 9.67e+001 -10.3 6.36e-001    -  8.64e-001 3.91e-003h  9
  91 -4.5286219e-009 1.43e-007 8.49e+000 -10.3 6.74e-001    -  7.52e-001 9.12e-001h  1
  92 -3.8782311e-009 1.27e-007 7.51e+000 -10.3 2.19e-001  -7.5 9.79e-002 1.15e-001f  2
  93 -3.2231662e-009 1.11e-007 6.54e+000 -10.3 8.93e-001  -7.9 1.12e-001 1.29e-001h  1
  94 -2.7086111e-009 1.00e-007 5.91e+000 -10.3 1.51e-001  -7.5 3.10e-001 9.59e-002f  3
  95 3.0795089e-009 2.92e-008 1.02e-003 -10.3 7.50e-002  -7.1 4.42e-001 1.00e+000h  1
In iteration 95, 1 Slack too small, adjusting variable bound
  96 3.3065106e-009 8.26e-009 1.02e-003 -10.3 4.51e-002  -6.7 3.83e-001 8.59e-001h  1
In iteration 96, 1 Slack too small, adjusting variable bound
  97 4.5447257e-009 9.20e-009 8.87e-004 -10.3 1.42e-002  -6.2 4.56e-001 7.99e-001h  1
  98 4.8836879e-009 1.15e-009 1.45e-004 -10.3 3.53e-003  -5.8 7.39e-001 1.00e+000h  1
  99 4.8484439e-009 4.04e-010 1.23e-005 -11.0 4.09e-003  -6.3 1.00e+000 1.00e+000h  1
iter    objective    inf_pr   inf_du lg(mu)  ||d||  lg(rg) alpha_du alpha_pr  ls
 100 4.7510551e-009 2.68e-010 1.58e-005 -11.0 7.61e-003  -6.8 1.00e+000 1.00e+000h  1
 101 4.5574156e-009 2.41e-010 1.20e-005 -11.0 1.95e-002  -7.2 1.00e+000 1.00e+000h  1
 102 4.2013448e-009 3.66e-009 9.87e-005 -11.0 7.86e-002  -7.7 1.00e+000 1.00e+000h  1
 103 4.1135262e-009 3.77e-010 3.78e-006 -11.0 1.74e-002  -7.3 1.00e+000 1.00e+000h  1
 104 3.9017789e-009 4.35e-009 1.03e-004 -11.0 4.78e-002  -7.8 1.00e+000 1.00e+000h  1
 105 3.7570447e-009 4.45e-010 9.33e-005 -11.0 6.55e-002  -8.2 1.00e+000 8.99e-001H  1
 106 3.7535919e-009 3.90e-010 2.56e-005 -11.0 1.51e-002  -7.8 1.00e+000 1.25e-001f  4
 107 3.7007175e-009 1.10e-008 3.57e-004 -10.7 7.60e-002  -8.3 1.00e+000 1.00e+000h  1
 108 3.2503056e-009 2.20e-008 1.59e-003 -10.8 6.16e-001  -8.8 1.04e-001 1.00e+000h  1
 109 2.8046065e-009 2.67e-008 4.30e-004 -10.8 1.17e-001  -8.4 1.00e+000 1.00e+000h  1
iter    objective    inf_pr   inf_du lg(mu)  ||d||  lg(rg) alpha_du alpha_pr  ls
 110 3.5400127e-009 4.10e-010 1.01e-004 -10.8 1.22e-002  -7.0 6.34e-001 1.00e+000h  1
 111 3.6190384e-009 3.10e-010 2.21e-005 -10.8 9.09e-003  -7.5 1.00e+000 1.00e+000h  1
 112 3.6126324e-009 7.89e-011 4.63e-006 -10.8 1.52e-002  -8.0 1.00e+000 1.00e+000h  1
 113 3.5575820e-009 1.64e-010 8.82e-006 -11.0 2.45e-002  -8.5 1.00e+000 1.00e+000h  1
 114 3.5531300e-009 1.43e-011 3.60e-007 -11.0 8.46e-003  -8.0 1.00e+000 1.00e+000h  1
 115 3.5357328e-009 1.14e-010 4.84e-006 -11.0 2.24e-002  -8.5 1.00e+000 1.00e+000h  1
 116 3.5308922e-009 2.78e-011 6.36e-007 -11.0 7.93e-003  -8.1 1.00e+000 1.00e+000h  1
 117 3.5160208e-009 8.02e-010 6.08e-006 -11.0 3.01e-002  -8.6 1.00e+000 1.00e+000h  1
 118 3.4821035e-009 2.22e-009 5.25e-005 -11.0 6.58e-002  -9.0 1.00e+000 1.00e+000h  1
 119 3.4540093e-009 1.11e-009 4.58e-005 -11.0 1.57e-001    -  1.00e+000 1.00e+000h  1
iter    objective    inf_pr   inf_du lg(mu)  ||d||  lg(rg) alpha_du alpha_pr  ls
 120 3.4674597e-009 1.84e-010 6.37e-006 -11.0 5.67e-002    -  1.00e+000 1.00e+000h  1
 121 3.4694414e-009 2.27e-012 7.46e-008 -11.0 2.87e-003    -  1.00e+000 1.00e+000h  1

Number of Iterations....: 121

                                   (scaled)                 (unscaled)
Objective...............:  3.4694414008098222e-009   3.4694414008384911e-009
Dual infeasibility......:  7.4581401323510215e-008   7.4581401324126511e-008
Constraint violation....:  2.2710441546736775e-012   2.2710441546736775e-012
Complementarity.........:  1.0000033467354830e-011   1.0000033467437463e-011
Overall NLP error.......:  7.4581401323510215e-008   7.4581401324126511e-008


Number of objective function evaluations             = 424
Number of objective gradient evaluations             = 121
Number of equality constraint evaluations            = 424
Number of inequality constraint evaluations          = 424
Number of equality constraint Jacobian evaluations   = 123
Number of inequality constraint Jacobian evaluations = 123
Number of Lagrangian Hessian evaluations             = 121
Total CPU secs in IPOPT (w/o function evaluations)   =      0.790
Total CPU secs in NLP function evaluations           =      2.429

EXIT: Optimal Solution Found.
